jobshop.in
         4         3         4            30           1.5    
         1         1         9999         2
         3         3         2
         1         3         4
         50        5         25
         120       20        50
         2         3         4
         60        5         10
         180       20        25
         3         4
         5         5
         20        10
         50        30        10            10
         80        15        5

