jobshop.out
Cafetaria model

Number of work stations                    4

Number of machines in each station         1    1 9999    2

Number of job types                        3

Number of tasks for each job type          3    3    2

Distribution function of job types    80.000  15.000   5.000

Mean interarrival time of jobs         30.00 seconds

Length of the simulation                 1.5 hours 


Job type     Work stations on route

   1            1    3    4

   2            2    3    4

   3            3    4


Job type     Service time (in seconds) for successive tasks

   1        50.00-120.00     5.00-20.00    25.00-50.00

   2        60.00-180.00     5.00-20.00    10.00-25.00

   3         5.00-20.00     5.00-10.00



Job type     Average total delay in queue

   1                   2142.164

   2                    552.810

   3                      0.552

Overall average job total delay =135434.957



 Work      Average number      Average       Average delay
station       in queue       utilization        in queue

   1           96.914            0.995         2107.613

   2            6.326            0.958          544.968

   3            0.000            0.000            0.000

   4            0.002            0.301            0.091